0
Node Left Objective IInf Best_Integer Best_Bound ItCnt Gap
0 0 0.0017 10 0.0017 17
0 2 0.0017 10 0.0017 17 0 0
CPXPARAM_MIP_Cuts_Disjunctive-LiftProj-MIRCut:Disjunctive 0
CPXPARAM_MIP_Cuts_Disjunctive-LiftProj-MIRCut:LiftProj 0
CPXPARAM_MIP_Cuts_Disjunctive-LiftProj-MIRCut:MIRCut 0
1
Node Left Objective IInf Best_Integer Best_Bound ItCnt Gap
0 0 1.3457 30 1.3457 20
0 2 1.3457 30 1.4236 20 0 0
CPXPARAM_MIP_Cuts_Disjunctive-LiftProj-MIRCut:Disjunctive 0
CPXPARAM_MIP_Cuts_Disjunctive-LiftProj-MIRCut:LiftProj 0
CPXPARAM_MIP_Cuts_Disjunctive-LiftProj-MIRCut:MIRCut 0
2
Node Left Objective IInf Best_Integer Best_Bound ItCnt Gap
0 0 0.0000 4 0.0000 18
0 2 0.0000 4 0.0000 18 0 0
CPXPARAM_MIP_Cuts_Disjunctive-LiftProj-MIRCut:Disjunctive 0
CPXPARAM_MIP_Cuts_Disjunctive-LiftProj-MIRCut:LiftProj 0
CPXPARAM_MIP_Cuts_Disjunctive-LiftProj-MIRCut:MIRCut 0
3
Node Left Objective IInf Best_Integer Best_Bound ItCnt Gap
0 0 2.4897 29 2.4897 25
0 2 2.4897 29 2.8862 25 0 0
CPXPARAM_MIP_Cuts_Disjunctive-LiftProj-MIRCut:Disjunctive 0
CPXPARAM_MIP_Cuts_Disjunctive-LiftProj-MIRCut:LiftProj 0
CPXPARAM_MIP_Cuts_Disjunctive-LiftProj-MIRCut:MIRCut 0
4
Node Left Objective IInf Best_Integer Best_Bound ItCnt Gap
0 0 1.7188 15 1.7188 17
0 0 1.7642 18 MIRcuts:10 43
0 0 1.8205 20 MIRcuts:18 71
0 0 2.5696 19 MIRcuts:28 101
0 0 3.0978 21 MIRcuts:24 144
0 0 5.3061 27 MIRcuts:23 228
0 0 9.6292 26 MIRcuts:28 366
0 0 23.7989 25 MIRcuts:24 478
0 0 cutoff 520 0 0
CPXPARAM_MIP_Cuts_Disjunctive-LiftProj-MIRCut:Disjunctive 37
CPXPARAM_MIP_Cuts_Disjunctive-LiftProj-MIRCut:LiftProj 0
CPXPARAM_MIP_Cuts_Disjunctive-LiftProj-MIRCut:MIRCut 0
5
Node Left Objective IInf Best_Integer Best_Bound ItCnt Gap
0 0 1.0822 27 1.0822 17
0 2 1.0822 27 1.0822 17 0 0
CPXPARAM_MIP_Cuts_Disjunctive-LiftProj-MIRCut:Disjunctive 0
CPXPARAM_MIP_Cuts_Disjunctive-LiftProj-MIRCut:LiftProj 0
CPXPARAM_MIP_Cuts_Disjunctive-LiftProj-MIRCut:MIRCut 0
6
Node Left Objective IInf Best_Integer Best_Bound ItCnt Gap
0 0 0.9112 17 0.9112 17
0 0 0.9112 17 MIRcuts:11 21
0 0 0.9112 17 MIRcuts:19 35
0 2 0.9112 17 0.9979 35 0 0
CPXPARAM_MIP_Cuts_Disjunctive-LiftProj-MIRCut:Disjunctive 5
CPXPARAM_MIP_Cuts_Disjunctive-LiftProj-MIRCut:LiftProj 0
CPXPARAM_MIP_Cuts_Disjunctive-LiftProj-MIRCut:MIRCut 0
7
Node Left Objective IInf Best_Integer Best_Bound ItCnt Gap
0 0 0.7760 26 0.7760 17
0 2 0.7760 26 0.7760 17 0 0
CPXPARAM_MIP_Cuts_Disjunctive-LiftProj-MIRCut:Disjunctive 0
CPXPARAM_MIP_Cuts_Disjunctive-LiftProj-MIRCut:LiftProj 0
CPXPARAM_MIP_Cuts_Disjunctive-LiftProj-MIRCut:MIRCut 0
8
Node Left Objective IInf Best_Integer Best_Bound ItCnt Gap
0 0 0.0000 7 0.0000 18
0 2 0.0000 7 0.0000 18 0 0
CPXPARAM_MIP_Cuts_Disjunctive-LiftProj-MIRCut:Disjunctive 0
CPXPARAM_MIP_Cuts_Disjunctive-LiftProj-MIRCut:LiftProj 0
CPXPARAM_MIP_Cuts_Disjunctive-LiftProj-MIRCut:MIRCut 0
9
Node Left Objective IInf Best_Integer Best_Bound ItCnt Gap
0 0 0.0001 24 0.0001 19
0 2 0.0001 24 0.0001 19 0 0
CPXPARAM_MIP_Cuts_Disjunctive-LiftProj-MIRCut:Disjunctive 0
CPXPARAM_MIP_Cuts_Disjunctive-LiftProj-MIRCut:LiftProj 0
CPXPARAM_MIP_Cuts_Disjunctive-LiftProj-MIRCut:MIRCut 0
10
Node Left Objective IInf Best_Integer Best_Bound ItCnt Gap
0 0 0.0000 4 0.0000 18
0 2 0.0000 4 0.0000 18 0 0
CPXPARAM_MIP_Cuts_Disjunctive-LiftProj-MIRCut:Disjunctive 0
CPXPARAM_MIP_Cuts_Disjunctive-LiftProj-MIRCut:LiftProj 0
CPXPARAM_MIP_Cuts_Disjunctive-LiftProj-MIRCut:MIRCut 0
11
Node Left Objective IInf Best_Integer Best_Bound ItCnt Gap
0 0 0.0000 15 0.0000 18
0 2 0.0000 15 0.0000 18 0 0
CPXPARAM_MIP_Cuts_Disjunctive-LiftProj-MIRCut:Disjunctive 0
CPXPARAM_MIP_Cuts_Disjunctive-LiftProj-MIRCut:LiftProj 0
CPXPARAM_MIP_Cuts_Disjunctive-LiftProj-MIRCut:MIRCut 0
12
Node Left Objective IInf Best_Integer Best_Bound ItCnt Gap
0 0 0.0000 5 0.0000 18
0 2 0.0000 5 0.0000 18 0 0
CPXPARAM_MIP_Cuts_Disjunctive-LiftProj-MIRCut:Disjunctive 0
CPXPARAM_MIP_Cuts_Disjunctive-LiftProj-MIRCut:LiftProj 0
CPXPARAM_MIP_Cuts_Disjunctive-LiftProj-MIRCut:MIRCut 0
13
Node Left Objective IInf Best_Integer Best_Bound ItCnt Gap
0 0 0.0000 17 0.0000 19
0 2 0.0000 17 0.0000 19 0 0
CPXPARAM_MIP_Cuts_Disjunctive-LiftProj-MIRCut:Disjunctive 0
CPXPARAM_MIP_Cuts_Disjunctive-LiftProj-MIRCut:LiftProj 0
CPXPARAM_MIP_Cuts_Disjunctive-LiftProj-MIRCut:MIRCut 0
14
Node Left Objective IInf Best_Integer Best_Bound ItCnt Gap
0 0 0.0000 4 0.0000 18
0 2 0.0000 4 0.0000 18 0 0
CPXPARAM_MIP_Cuts_Disjunctive-LiftProj-MIRCut:Disjunctive 0
CPXPARAM_MIP_Cuts_Disjunctive-LiftProj-MIRCut:LiftProj 0
CPXPARAM_MIP_Cuts_Disjunctive-LiftProj-MIRCut:MIRCut 0
15
Node Left Objective IInf Best_Integer Best_Bound ItCnt Gap
0 0 0.0000 16 0.0000 19
0 2 0.0000 16 0.0000 19 0 0
CPXPARAM_MIP_Cuts_Disjunctive-LiftProj-MIRCut:Disjunctive 0
CPXPARAM_MIP_Cuts_Disjunctive-LiftProj-MIRCut:LiftProj 0
CPXPARAM_MIP_Cuts_Disjunctive-LiftProj-MIRCut:MIRCut 0
16
Node Left Objective IInf Best_Integer Best_Bound ItCnt Gap
0 0 0.0000 4 0.0000 18
0 2 0.0000 4 0.0000 18 0 0
CPXPARAM_MIP_Cuts_Disjunctive-LiftProj-MIRCut:Disjunctive 0
CPXPARAM_MIP_Cuts_Disjunctive-LiftProj-MIRCut:LiftProj 0
CPXPARAM_MIP_Cuts_Disjunctive-LiftProj-MIRCut:MIRCut 0
17
Node Left Objective IInf Best_Integer Best_Bound ItCnt Gap
0 0 0.1425 28 0.1425 19
0 2 0.1425 28 0.1425 19 0 0
CPXPARAM_MIP_Cuts_Disjunctive-LiftProj-MIRCut:Disjunctive 0
CPXPARAM_MIP_Cuts_Disjunctive-LiftProj-MIRCut:LiftProj 0
CPXPARAM_MIP_Cuts_Disjunctive-LiftProj-MIRCut:MIRCut 0
18
Node Left Objective IInf Best_Integer Best_Bound ItCnt Gap
0 0 0.0000 4 0.0000 18
0 2 0.0000 4 0.0000 18 0 0
CPXPARAM_MIP_Cuts_Disjunctive-LiftProj-MIRCut:Disjunctive 0
CPXPARAM_MIP_Cuts_Disjunctive-LiftProj-MIRCut:LiftProj 0
CPXPARAM_MIP_Cuts_Disjunctive-LiftProj-MIRCut:MIRCut 0
19
Node Left Objective IInf Best_Integer Best_Bound ItCnt Gap
0 0 0.0000 14 0.0000 19
0 2 0.0000 14 0.0000 19 0 0
CPXPARAM_MIP_Cuts_Disjunctive-LiftProj-MIRCut:Disjunctive 0
CPXPARAM_MIP_Cuts_Disjunctive-LiftProj-MIRCut:LiftProj 0
CPXPARAM_MIP_Cuts_Disjunctive-LiftProj-MIRCut:MIRCut 0
20
Node Left Objective IInf Best_Integer Best_Bound ItCnt Gap
0 0 infeasible 21
CPXPARAM_MIP_Cuts_Disjunctive-LiftProj-MIRCut:Disjunctive 0
CPXPARAM_MIP_Cuts_Disjunctive-LiftProj-MIRCut:LiftProj 0
CPXPARAM_MIP_Cuts_Disjunctive-LiftProj-MIRCut:MIRCut 0
21
Node Left Objective IInf Best_Integer Best_Bound ItCnt Gap
0 0 2.2504 29 2.2504 19
0 2 2.2504 29 2.3241 19 0 0
CPXPARAM_MIP_Cuts_Disjunctive-LiftProj-MIRCut:Disjunctive 0
CPXPARAM_MIP_Cuts_Disjunctive-LiftProj-MIRCut:LiftProj 0
CPXPARAM_MIP_Cuts_Disjunctive-LiftProj-MIRCut:MIRCut 0
22
Node Left Objective IInf Best_Integer Best_Bound ItCnt Gap
0 0 infeasible 23
CPXPARAM_MIP_Cuts_Disjunctive-LiftProj-MIRCut:Disjunctive 0
CPXPARAM_MIP_Cuts_Disjunctive-LiftProj-MIRCut:LiftProj 0
CPXPARAM_MIP_Cuts_Disjunctive-LiftProj-MIRCut:MIRCut 0
23
Node Left Objective IInf Best_Integer Best_Bound ItCnt Gap
0 0 4.7944 28 4.7944 16
0 2 4.7944 28 13.1660 16 0 0
CPXPARAM_MIP_Cuts_Disjunctive-LiftProj-MIRCut:Disjunctive 0
CPXPARAM_MIP_Cuts_Disjunctive-LiftProj-MIRCut:LiftProj 0
CPXPARAM_MIP_Cuts_Disjunctive-LiftProj-MIRCut:MIRCut 0
24
Node Left Objective IInf Best_Integer Best_Bound ItCnt Gap
0 0 0.3379 16 0.3379 16
0 0 0.3379 17 MIRcuts:18 22
0 0 0.3379 18 MIRcuts:14 38
0 2 0.3379 18 0.3379 38 0 0
CPXPARAM_MIP_Cuts_Disjunctive-LiftProj-MIRCut:Disjunctive 8
CPXPARAM_MIP_Cuts_Disjunctive-LiftProj-MIRCut:LiftProj 0
CPXPARAM_MIP_Cuts_Disjunctive-LiftProj-MIRCut:MIRCut 0
25
Node Left Objective IInf Best_Integer Best_Bound ItCnt Gap
0 0 0.3126 20 0.3126 19
0 2 0.3126 20 0.3126 19 0 0
CPXPARAM_MIP_Cuts_Disjunctive-LiftProj-MIRCut:Disjunctive 0
CPXPARAM_MIP_Cuts_Disjunctive-LiftProj-MIRCut:LiftProj 0
CPXPARAM_MIP_Cuts_Disjunctive-LiftProj-MIRCut:MIRCut 0
26
Node Left Objective IInf Best_Integer Best_Bound ItCnt Gap
0 0 0.4059 13 0.4059 19
0 0 0.4059 13 MIRcuts:19 23
0 0 0.4059 13 MIRcuts:19 35
0 2 0.4059 13 0.4059 35 0 0
CPXPARAM_MIP_Cuts_Disjunctive-LiftProj-MIRCut:Disjunctive 11
CPXPARAM_MIP_Cuts_Disjunctive-LiftProj-MIRCut:LiftProj 0
CPXPARAM_MIP_Cuts_Disjunctive-LiftProj-MIRCut:MIRCut 0
27
Node Left Objective IInf Best_Integer Best_Bound ItCnt Gap
0 0 0.5802 27 0.5802 16
0 2 0.5802 26 0.5802 16 0 0
CPXPARAM_MIP_Cuts_Disjunctive-LiftProj-MIRCut:Disjunctive 0
CPXPARAM_MIP_Cuts_Disjunctive-LiftProj-MIRCut:LiftProj 0
CPXPARAM_MIP_Cuts_Disjunctive-LiftProj-MIRCut:MIRCut 0
28
Node Left Objective IInf Best_Integer Best_Bound ItCnt Gap
0 0 0.0754 17 0.0754 16
0 2 0.0754 17 0.0754 16 0 0
CPXPARAM_MIP_Cuts_Disjunctive-LiftProj-MIRCut:Disjunctive 0
CPXPARAM_MIP_Cuts_Disjunctive-LiftProj-MIRCut:LiftProj 0
CPXPARAM_MIP_Cuts_Disjunctive-LiftProj-MIRCut:MIRCut 0
29
Node Left Objective IInf Best_Integer Best_Bound ItCnt Gap
0 0 0.7138 30 0.7138 18
0 2 0.7138 30 0.8098 18 0 0
CPXPARAM_MIP_Cuts_Disjunctive-LiftProj-MIRCut:Disjunctive 0
CPXPARAM_MIP_Cuts_Disjunctive-LiftProj-MIRCut:LiftProj 0
CPXPARAM_MIP_Cuts_Disjunctive-LiftProj-MIRCut:MIRCut 0
30
Node Left Objective IInf Best_Integer Best_Bound ItCnt Gap
0 0 infeasible 39
CPXPARAM_MIP_Cuts_Disjunctive-LiftProj-MIRCut:Disjunctive 0
CPXPARAM_MIP_Cuts_Disjunctive-LiftProj-MIRCut:LiftProj 0
CPXPARAM_MIP_Cuts_Disjunctive-LiftProj-MIRCut:MIRCut 0
31
Node Left Objective IInf Best_Integer Best_Bound ItCnt Gap
0 0 0.6985 30 0.6985 20
0 2 0.6985 30 0.7008 20 0 0
CPXPARAM_MIP_Cuts_Disjunctive-LiftProj-MIRCut:Disjunctive 0
CPXPARAM_MIP_Cuts_Disjunctive-LiftProj-MIRCut:LiftProj 0
CPXPARAM_MIP_Cuts_Disjunctive-LiftProj-MIRCut:MIRCut 0
32
Node Left Objective IInf Best_Integer Best_Bound ItCnt Gap
0 0 0.1213 15 0.1213 15
0 0 0.1213 16 MIRcuts:16 23
0 0 0.1213 16 MIRcuts:17 27
0 2 0.1213 16 0.1213 27 0 0
CPXPARAM_MIP_Cuts_Disjunctive-LiftProj-MIRCut:Disjunctive 2
CPXPARAM_MIP_Cuts_Disjunctive-LiftProj-MIRCut:LiftProj 0
CPXPARAM_MIP_Cuts_Disjunctive-LiftProj-MIRCut:MIRCut 0
33
Node Left Objective IInf Best_Integer Best_Bound ItCnt Gap
0 0 0.3146 24 0.3146 18
0 2 0.3146 24 0.3146 18 0 0
CPXPARAM_MIP_Cuts_Disjunctive-LiftProj-MIRCut:Disjunctive 0
CPXPARAM_MIP_Cuts_Disjunctive-LiftProj-MIRCut:LiftProj 0
CPXPARAM_MIP_Cuts_Disjunctive-LiftProj-MIRCut:MIRCut 0
34
Node Left Objective IInf Best_Integer Best_Bound ItCnt Gap
0 0 0.0480 14 0.0480 16
0 2 0.0480 14 0.0480 16 0 0
CPXPARAM_MIP_Cuts_Disjunctive-LiftProj-MIRCut:Disjunctive 0
CPXPARAM_MIP_Cuts_Disjunctive-LiftProj-MIRCut:LiftProj 0
CPXPARAM_MIP_Cuts_Disjunctive-LiftProj-MIRCut:MIRCut 0
35
Node Left Objective IInf Best_Integer Best_Bound ItCnt Gap
0 0 0.6907 31 0.6907 19
0 2 0.6907 30 0.7209 19 0 0
CPXPARAM_MIP_Cuts_Disjunctive-LiftProj-MIRCut:Disjunctive 0
CPXPARAM_MIP_Cuts_Disjunctive-LiftProj-MIRCut:LiftProj 0
CPXPARAM_MIP_Cuts_Disjunctive-LiftProj-MIRCut:MIRCut 0
36
Node Left Objective IInf Best_Integer Best_Bound ItCnt Gap
0 0 0.0097 12 0.0097 15
0 2 0.0097 12 0.0097 15 0 0
CPXPARAM_MIP_Cuts_Disjunctive-LiftProj-MIRCut:Disjunctive 0
CPXPARAM_MIP_Cuts_Disjunctive-LiftProj-MIRCut:LiftProj 0
CPXPARAM_MIP_Cuts_Disjunctive-LiftProj-MIRCut:MIRCut 0
37
Node Left Objective IInf Best_Integer Best_Bound ItCnt Gap
0 0 0.0000 19 0.0000 19
0 2 0.0000 19 0.0000 19 0 0
CPXPARAM_MIP_Cuts_Disjunctive-LiftProj-MIRCut:Disjunctive 0
CPXPARAM_MIP_Cuts_Disjunctive-LiftProj-MIRCut:LiftProj 0
CPXPARAM_MIP_Cuts_Disjunctive-LiftProj-MIRCut:MIRCut 0
38
Node Left Objective IInf Best_Integer Best_Bound ItCnt Gap
0 0 0.4227 17 0.4227 17
0 0 0.4227 19 MIRcuts:18 41
0 0 0.5366 16 MIRcuts:34 84
0 0 0.5706 22 MIRcuts:26 130
0 0 0.7605 16 MIRcuts:30 175
0 0 0.8161 16 MIRcuts:9 197
0 0 0.8528 17 MIRcuts:2 210
0 0 0.8551 17 MIRcuts:5 217
0 0 0.8616 17 MIRcuts:1 220
0 2 0.8616 17 0.9292 220 0 0
CPXPARAM_MIP_Cuts_Disjunctive-LiftProj-MIRCut:Disjunctive 31
CPXPARAM_MIP_Cuts_Disjunctive-LiftProj-MIRCut:LiftProj 0
CPXPARAM_MIP_Cuts_Disjunctive-LiftProj-MIRCut:MIRCut 0
39
Node Left Objective IInf Best_Integer Best_Bound ItCnt Gap
0 0 0.0426 27 0.0426 17
0 2 0.0426 27 0.0426 17 0 0
CPXPARAM_MIP_Cuts_Disjunctive-LiftProj-MIRCut:Disjunctive 0
CPXPARAM_MIP_Cuts_Disjunctive-LiftProj-MIRCut:LiftProj 0
CPXPARAM_MIP_Cuts_Disjunctive-LiftProj-MIRCut:MIRCut 0
